asp/input/in_30_15_8_1.lp
#const n = 30.
#const k = 15.
#const h = 8.
tile(1,15,8).
tile(2,8,5).
tile(3,11,15).
tile(4,8,5).
tile(5,15,6).
tile(6,15,4).
tile(7,4,5).
tile(8,8,10).
tile(9,5,8).
tile(10,1,12).
tile(11,15,6).
tile(12,6,1).
tile(13,15,14).
tile(14,15,7).
tile(15,9,9).
tile(16,10,11).
tile(17,12,5).
tile(18,15,13).
tile(19,12,5).
tile(20,12,2).
tile(21,11,1).
tile(22,5,10).
tile(23,13,9).
tile(24,9,14).
tile(25,11,7).
tile(26,15,1).
tile(27,10,14).
tile(28,10,3).
tile(29,8,10).
tile(30,2,13).
