minizinc/input/in_30_15_8_1.dzn
n = 30;
k = 15;
h = 8;
tiles = array2d(1..n, 1..2,
[ 15,8
, 8,5
, 11,15
, 8,5
, 15,6
, 15,4
, 4,5
, 8,10
, 5,8
, 1,12
, 15,6
, 6,1
, 15,14
, 15,7
, 9,9
, 10,11
, 12,5
, 15,13
, 12,5
, 12,2
, 11,1
, 5,10
, 13,9
, 9,14
, 11,7
, 15,1
, 10,14
, 10,3
, 8,10
, 2,13
]);